p tdp 16 65
1 4
1 6
1 9
1 10
1 11
1 12
2 4
2 5
2 6
2 9
2 12
2 14
2 15
2 16
3 4
3 5
3 6
3 7
3 8
3 9
3 11
3 15
3 16
4 6
4 7
4 9
4 10
4 11
4 12
4 13
4 15
4 16
5 7
5 12
5 14
5 15
5 16
6 10
6 12
6 13
7 9
7 10
7 13
7 14
7 15
7 16
8 12
8 13
8 14
8 15
9 10
9 11
9 14
9 16
10 11
10 12
10 14
11 12
11 13
11 15
12 13
12 15
13 14
13 15
15 16
